
Gurobi 9.1.0 (win64) logging started Fri Dec 18 19:14:40 2020

Changed value of parameter LogFile to log/S76D4.log
   Prev:   Default: 
Changed value of parameter TimeLimit to 720.0
   Prev: inf  Min: 0.0  Max: inf  Default: inf
Gurobi Optimizer version 9.1.0 build v9.1.0rc0 (win64)
Thread count: 6 physical cores, 12 logical processors, using up to 12 threads
Optimize a model with 318360 rows, 164262 columns and 1692900 nonzeros
Model fingerprint: 0xe32af08c
Variable types: 75 continuous, 164187 integer (155979 binary)
Coefficient statistics:
  Matrix range     [1e+00, 1e+03]
  Objective range  [2e+00, 9e+01]
  Bounds range     [1e+00, 1e+00]
  RHS range        [1e+00, 8e+01]
Presolve removed 156340 rows and 486 columns
Presolve time: 1.19s
Presolved: 162020 rows, 163776 columns, 804600 nonzeros
Variable types: 75 continuous, 163701 integer (154305 binary)
Found heuristic solution: objective 5408.2569204

Deterministic concurrent LP optimizer: primal and dual simplex
Showing first log only...


Root simplex log...

Iteration    Objective       Primal Inf.    Dual Inf.      Time
   27211    1.2811993e+03   0.000000e+00   6.918942e+04      5s
   61024    6.9916449e+02   0.000000e+00   8.228798e+07     10s
Concurrent spin time: 0.00s

Solved with dual simplex

Root relaxation: objective 4.855258e+02, 18899 iterations, 7.68 seconds

    Nodes    |    Current Node    |     Objective Bounds      |     Work
 Expl Unexpl |  Obj  Depth IntInf | Incumbent    BestBd   Gap | It/Node Time

     0     0  485.52580    0  883 5408.25692  485.52580  91.0%     -   14s
H    0     0                    4022.2192590  485.52580  87.9%     -   53s
     0     0  485.52580    0  863 4022.21926  485.52580  87.9%     -   60s
     0     0  485.52580    0  905 4022.21926  485.52580  87.9%     -  110s
     0     0  485.52580    0  838 4022.21926  485.52580  87.9%     -  123s
     0     0  485.52580    0  814 4022.21926  485.52580  87.9%     -  125s
     0     0  485.52580    0  891 4022.21926  485.52580  87.9%     -  136s
     0     0  485.52580    0  871 4022.21926  485.52580  87.9%     -  138s
     0     0  485.52580    0  864 4022.21926  485.52580  87.9%     -  151s
     0     0  485.52580    0  872 4022.21926  485.52580  87.9%     -  177s
     0     0  485.52580    0  809 4022.21926  485.52580  87.9%     -  191s
     0     0  485.52580    0  809 4022.21926  485.52580  87.9%     -  289s
     0     2  485.52580    0  809 4022.21926  485.52580  87.9%     -  314s
     1     4  489.41858    1  952 4022.21926  485.56158  87.9% 12378  520s
     3     8  499.63027    2  954 4022.21926  485.63208  87.9%  7213  721s

Cutting planes:
  Learned: 1
  Gomory: 14
  MIR: 107
  Relax-and-lift: 26

Explored 7 nodes (160872 simplex iterations) in 721.22 seconds
Thread count was 12 (of 12 available processors)

Solution count 2: 4022.22 5408.26 

Time limit reached
Best objective 4.022219259026e+03, best bound 4.894646756807e+02, gap 87.8310%

Gurobi 9.1.0 (win64) logging started Sat Dec 19 00:19:16 2020

Changed value of parameter LogFile to log/S76D4.log
   Prev:   Default: 
Changed value of parameter TimeLimit to 720.0
   Prev: inf  Min: 0.0  Max: inf  Default: inf
Gurobi Optimizer version 9.1.0 build v9.1.0rc0 (win64)
Thread count: 6 physical cores, 12 logical processors, using up to 12 threads
Optimize a model with 153440 rows, 79128 columns and 798304 nonzeros
Model fingerprint: 0xc1b0af7e
Variable types: 75 continuous, 79053 integer (75101 binary)
Coefficient statistics:
  Matrix range     [1e+00, 1e+03]
  Objective range  [2e+00, 9e+01]
  Bounds range     [1e+00, 1e+00]
  RHS range        [1e+00, 8e+01]
Presolve removed 75531 rows and 468 columns
Presolve time: 0.50s
Presolved: 77909 rows, 78660 columns, 388414 nonzeros
Variable types: 75 continuous, 78585 integer (74555 binary)

Deterministic concurrent LP optimizer: primal and dual simplex
Showing first log only...

Concurrent spin time: 0.00s

Solved with dual simplex

Root relaxation: objective 4.855258e+02, 8738 iterations, 1.89 seconds

    Nodes    |    Current Node    |     Objective Bounds      |     Work
 Expl Unexpl |  Obj  Depth IntInf | Incumbent    BestBd   Gap | It/Node Time

     0     0  485.52580    0  830          -  485.52580      -     -    3s
     0     0  485.52580    0  670          -  485.52580      -     -   13s
     0     0  485.52580    0  740          -  485.52580      -     -   14s
     0     0  485.52580    0  762          -  485.52580      -     -   17s
     0     0  485.52580    0  767          -  485.52580      -     -   17s
     0     0  485.52580    0  726          -  485.52580      -     -   20s
     0     0  485.52580    0  732          -  485.52580      -     -   28s
     0     0  485.52580    0  742          -  485.52580      -     -   30s
     0     0  485.52580    0  762          -  485.52580      -     -   31s
     0     0  485.52580    0  711          -  485.52580      -     -   32s
H    0     0                    4888.1406710  485.52580  90.1%     -   33s
     0     0  485.52580    0  711 4888.14067  485.52580  90.1%     -   41s
H    0     0                    2162.0568414  485.52580  77.5%     -   78s
     0     2  485.52580    0  711 2162.05684  485.52580  77.5%     -   80s
     3     8  485.58856    2  730 2162.05684  485.55913  77.5%  2358   89s
     7    14  485.66900    3  719 2162.05684  485.55913  77.5%  1689   97s
    13    20  485.66900    4  737 2162.05684  485.56054  77.5%  1277  105s
    25    32  485.72470    6  760 2162.05684  485.59085  77.5%  1070  110s
H   31    38                    1966.0613314  485.59085  75.3%   955  114s
H   32    38                    1913.9448683  485.59085  74.6%   946  114s
    37    45  485.72470    8  769 1913.94487  485.59085  74.6%   984  119s
    44    51  485.72470    9  782 1913.94487  485.59085  74.6%   957  122s
    60    69  486.02984   10  771 1913.94487  485.59085  74.6%   848  128s
H   68    75                    1781.4278060  485.59085  72.7%   836  156s
H   74    81                    1687.3701565  485.59085  71.2%   806  214s
H   77    81                    1670.9625562  485.59085  70.9%   780  214s
H   78    81                    1536.8113855  485.59085  68.4%   772  214s
    80    88  485.99036   12  735 1536.81139  485.59085  68.4%   775  217s
    87   101  486.03140   12  745 1536.81139  485.59085  68.4%   743  223s
   100   114  486.21725   13  751 1536.81139  485.59085  68.4%   707  227s
   113   130  486.31800   14  729 1536.81139  485.59085  68.4%   697  232s
   129   144  486.31800   16  702 1536.81139  485.59085  68.4%   679  235s
   165   191  487.60831   20  739 1536.81139  485.59085  68.4%   620  241s
   191   209  487.60831   22  742 1536.81139  485.59085  68.4%   562  245s
   228   250  487.62615   24  755 1536.81139  485.59085  68.4%   537  254s
   252   270  488.07249   26  770 1536.81139  485.59085  68.4%   523  257s
   274   295  488.07249   27  752 1536.81139  485.59085  68.4%   503  263s
   299   307  488.33264   28  765 1536.81139  485.59085  68.4%   489  291s
H  311   313                    1536.4213863  485.59085  68.4%   478  318s
H  312   313                    1521.7984343  485.59085  68.1%   477  318s
H  314   313                    1512.5758542  485.59085  67.9%   478  318s
H  315   313                    1509.2402004  485.59085  67.8%   477  318s
   317   361  488.43522   31  743 1509.24020  485.59085  67.8%   475  323s
   367   388  488.93256   42  748 1509.24020  485.59085  67.8%   431  330s
   395   417  489.20146   49  735 1509.24020  485.59085  67.8%   433  336s
   426   437  489.39449   56  740 1509.24020  485.59085  67.8%   433  344s
   449   448  549.41457   60  733 1509.24020  485.59085  67.8%   471  356s
   462   474  549.41457   61  723 1509.24020  485.59085  67.8%   511  363s
   488   498  549.59627   64  731 1509.24020  485.59085  67.8%   514  369s
   512   522  550.36274   66  757 1509.24020  485.59085  67.8%   520  375s
   537   556  551.13918   69  756 1509.24020  485.59085  67.8%   528  381s
   572   611  551.03269   71  724 1509.24020  485.59085  67.8%   527  388s
   633   662  552.50488   84  782 1509.24020  485.59085  67.8%   505  394s
   688   709  554.41702   89  746 1509.24020  485.59085  67.8%   492  401s
   740   785  559.58643   94  746 1509.24020  485.59085  67.8%   482  408s
   816   878  559.76701  104  743 1509.24020  485.59085  67.8%   457  416s
   912   970  560.65620  129  764 1509.24020  485.59085  67.8%   428  424s
  1013  1061  562.52953  134  744 1509.24020  485.59085  67.8%   404  432s
  1110  1151  563.03617  155  894 1509.24020  485.59085  67.8%   383  441s
  1203  1244  563.54696  182  767 1509.24020  485.59085  67.8%   372  451s
  1302  1337  644.53895  189  766 1509.24020  485.59085  67.8%   361  460s
  1404  1455  655.35871  196  777 1509.24020  485.59085  67.8%   349  469s
  1524  1620  659.62522  213  760 1509.24020  485.59085  67.8%   334  478s
  1695  1804  663.27676  255  832 1509.24020  485.59085  67.8%   309  487s
  1888  2004  664.66468  308  734 1509.24020  485.59085  67.8%   286  497s
  2110  2170  665.51349  359  725 1509.24020  485.59085  67.8%   262  507s
  2304  2378  759.29753  386  698 1509.24020  485.59085  67.8%   246  518s
  2551  2588  759.38208  424  671 1509.24020  485.59085  67.8%   228  529s
  2775  2862  864.33175  458  725 1509.24020  485.59085  67.8%   216  541s
  3077  3134  866.24819  492  631 1509.24020  485.59085  67.8%   198  552s
  3379  3398  867.16689  542  635 1509.24020  485.59085  67.8%   184  563s
  3678  3665  869.80616  581  624 1509.24020  485.59085  67.8%   173  575s
  3980  3957  873.79821  622  583 1509.24020  485.59085  67.8%   163  587s
  4323  4299  977.71307  657  609 1509.24020  485.59085  67.8%   153  599s
  4680  4539  982.33998  710  592 1509.24020  485.59085  67.8%   145  612s
  4944  4797  984.80774  749  632 1509.24020  485.59085  67.8%   142  625s
  5241  5006  986.12309  787  659 1509.24020  485.59085  67.8%   137  638s
  5514  5245  987.94038  811  647 1509.24020  485.59085  67.8%   134  651s
  5768  5458  990.51111  835  642 1509.24020  485.59085  67.8%   132  664s
  6013  5762 1145.58455  865  570 1509.24020  485.59085  67.8%   131  677s
  6340  5763  503.97719   33  711 1509.24020  485.59085  67.8%   128  682s
H 6341  5475                    1484.6347200  485.59085  67.3%   128  693s
H 6342  5201                    1476.7287169  485.59085  67.1%   128  696s
  6343  5202  592.47181  166  799 1476.72872  485.59085  67.1%   128  712s
  6344  5203 1134.36628 1063  791 1476.72872  485.59085  67.1%   128  715s

Cutting planes:
  Learned: 1
  Gomory: 12
  MIR: 30
  StrongCG: 1
  Relax-and-lift: 10

Explored 6344 nodes (886858 simplex iterations) in 722.18 seconds
Thread count was 12 (of 12 available processors)

Solution count 10: 1476.73 1484.63 1509.24 ... 1781.43

Time limit reached
Best objective 1.476728716851e+03, best bound 4.855908450892e+02, gap 67.1171%
